; ./prepared/sv-comp/./2015-05-26/LIA/Eldarica/linear-tree-like/choldc.smt2-b-0054_000.smt2
(set-logic HORN)


(declare-fun |predh17_21| ( Int Int Int Int Int Int Int Int Int Int Int Int Int Int Int Int Int Int Int Int Int Int Int Int Int Int Int Int ) Bool)
(declare-fun |predh73_13| ( Int Int Int Int Int Int Int Int Int Int Int Int Int Int Int Int Int Int Int Int Int Int Int Int Int Int Int Int ) Bool)
(declare-fun |predh38_15| ( Int Int Int Int Int Int Int Int Int Int Int Int Int Int Int Int Int Int Int Int Int Int Int Int Int Int Int Int ) Bool)
(declare-fun |predh38_7| ( Int Int Int Int Int Int Int Int Int Int Int Int Int Int Int Int Int Int Int Int Int Int Int Int Int Int Int Int ) Bool)
(declare-fun |predh38_6| ( Int Int Int Int Int Int Int Int Int Int Int Int Int Int Int Int Int Int Int Int Int Int Int Int Int Int Int Int ) Bool)
(declare-fun |predh73_25| ( Int Int Int Int Int Int Int Int Int Int Int Int Int Int Int Int Int Int Int Int Int Int Int Int Int Int Int Int ) Bool)
(declare-fun |predh8_32| ( Int Int Int Int Int Int Int Int Int Int Int Int Int Int Int Int Int Int Int Int Int Int Int Int Int Int Int Int ) Bool)
(declare-fun |predh17_23| ( Int Int Int Int Int Int Int Int Int Int Int Int Int Int Int Int Int Int Int Int Int Int Int Int Int Int Int Int ) Bool)
(declare-fun |predh38_1| ( Int Int Int Int Int Int Int Int Int Int Int Int Int Int Int Int Int Int Int Int Int Int Int Int Int Int Int Int ) Bool)
(declare-fun |predh17_9| ( Int Int Int Int Int Int Int Int Int Int Int Int Int Int Int Int Int Int Int Int Int Int Int Int Int Int Int Int ) Bool)
(declare-fun |predh8_22| ( Int Int Int Int Int Int Int Int Int Int Int Int Int Int Int Int Int Int Int Int Int Int Int Int Int Int Int Int ) Bool)
(declare-fun |predh17_27| ( Int Int Int Int Int Int Int Int Int Int Int Int Int Int Int Int Int Int Int Int Int Int Int Int Int Int Int Int ) Bool)
(declare-fun |predh38_30| ( Int Int Int Int Int Int Int Int Int Int Int Int Int Int Int Int Int Int Int Int Int Int Int Int Int Int Int Int ) Bool)
(declare-fun |predh38_2| ( Int Int Int Int Int Int Int Int Int Int Int Int Int Int Int Int Int Int Int Int Int Int Int Int Int Int Int Int ) Bool)
(declare-fun |predh38_8| ( Int Int Int Int Int Int Int Int Int Int Int Int Int Int Int Int Int Int Int Int Int Int Int Int Int Int Int Int ) Bool)
(declare-fun |predh38_20| ( Int Int Int Int Int Int Int Int Int Int Int Int Int Int Int Int Int Int Int Int Int Int Int Int Int Int Int Int ) Bool)
(declare-fun |predh78_18| ( Int Int Int Int Int Int Int Int Int Int Int Int Int Int Int Int Int Int Int Int Int Int Int Int Int Int Int Int ) Bool)
(declare-fun |predh88_28| ( Int Int Int Int Int Int Int Int Int Int Int Int Int Int Int Int Int Int Int Int Int Int Int Int Int Int Int Int ) Bool)
(declare-fun |predh17_31| ( Int Int Int Int Int Int Int Int Int Int Int Int Int Int Int Int Int Int Int Int Int Int Int Int Int Int Int Int ) Bool)
(declare-fun |predh88_4| ( Int Int Int Int Int Int Int Int Int Int Int Int Int Int Int Int Int Int Int Int Int Int Int Int Int Int Int Int ) Bool)
(declare-fun |predh78_5| ( Int Int Int Int Int Int Int Int Int Int Int Int Int Int Int Int Int Int Int Int Int Int Int Int Int Int Int Int ) Bool)
(declare-fun |predh17_16| ( Int Int Int Int Int Int Int Int Int Int Int Int Int Int Int Int Int Int Int Int Int Int Int Int Int Int Int Int ) Bool)
(declare-fun |predh88_12| ( Int Int Int Int Int Int Int Int Int Int Int Int Int Int Int Int Int Int Int Int Int Int Int Int Int Int Int Int ) Bool)
(declare-fun |predh38_19| ( Int Int Int Int Int Int Int Int Int Int Int Int Int Int Int Int Int Int Int Int Int Int Int Int Int Int Int Int ) Bool)
(declare-fun |predh88_24| ( Int Int Int Int Int Int Int Int Int Int Int Int Int Int Int Int Int Int Int Int Int Int Int Int Int Int Int Int ) Bool)
(declare-fun |predh17_3| ( Int Int Int Int Int Int Int Int Int Int Int Int Int Int Int Int Int Int Int Int Int Int Int Int Int Int Int Int ) Bool)
(declare-fun |predh88_17| ( Int Int Int Int Int Int Int Int Int Int Int Int Int Int Int Int Int Int Int Int Int Int Int Int Int Int Int Int ) Bool)
(declare-fun |predh17_11| ( Int Int Int Int Int Int Int Int Int Int Int Int Int Int Int Int Int Int Int Int Int Int Int Int Int Int Int Int ) Bool)
(declare-fun |predh78_29| ( Int Int Int Int Int Int Int Int Int Int Int Int Int Int Int Int Int Int Int Int Int Int Int Int Int Int Int Int ) Bool)
(declare-fun |predh38_26| ( Int Int Int Int Int Int Int Int Int Int Int Int Int Int Int Int Int Int Int Int Int Int Int Int Int Int Int Int ) Bool)
(declare-fun |predh38_14| ( Int Int Int Int Int Int Int Int Int Int Int Int Int Int Int Int Int Int Int Int Int Int Int Int Int Int Int Int ) Bool)
(declare-fun |predh8_10| ( Int Int Int Int Int Int Int Int Int Int Int Int Int Int Int Int Int Int Int Int Int Int Int Int Int Int Int Int ) Bool)

(assert
  (forall ( (A Int) (B Int) (C Int) (D Int) (E Int) (F Int) (G Int) (H Int) (I Int) (J Int) (K Int) (L Int) (M Int) (N Int) (O Int) (P Int) (Q Int) (R Int) (S Int) (T Int) (U Int) (V Int) (W Int) (X Int) (Y Int) (Z Int) (A1 Int) (B1 Int) (C1 Int) (D1 Int) ) 
    (=>
      (and
        (predh38_2 C1 B1 A1 Z Y X W V U T S R Q P O N M L K J I H G F E D C B)
        (and (<= 1 D)
     (<= 0 (+ (* (- 1) J) D))
     (<= 0 (+ (* (- 1) L) E))
     (<= 0 (+ (* (- 1) L) F))
     (<= 0 (+ I (* (- 1) D)))
     (<= 0 (+ K (* (- 1) E)))
     (<= 0 (+ K (* (- 1) F)))
     (= A (+ (- 1) D)))
      )
      (predh38_1 C1 B1 A1 Z Y X W V U T S R Q P O N M L K J I H G F E A D1 B)
    )
  )
)
(assert
  (forall ( (A Int) (B Int) (C Int) (D Int) (E Int) (F Int) (G Int) (H Int) (I Int) (J Int) (K Int) (L Int) (M Int) (N Int) (O Int) (P Int) (Q Int) (R Int) (S Int) (T Int) (U Int) (V Int) (W Int) (X Int) (Y Int) (Z Int) (A1 Int) (B1 Int) (C1 Int) (D1 Int) ) 
    (=>
      (and
        (predh17_3 C1 B1 A1 Z Y X W V U T S R Q P O N M L K J I H G F E D C B)
        (and (<= 0 (+ (* (- 1) J) E))
     (<= 0 (+ (* (- 1) L) F))
     (<= 0 (+ I (* (- 1) E)))
     (<= 0 (+ N (* (- 1) E)))
     (<= 0 (+ K (* (- 1) F)))
     (= A (+ (- 1) F)))
      )
      (predh38_2 C1 B1 A1 Z Y X W V U T S R Q P O N M L K J I H G F E A D1 B)
    )
  )
)
(assert
  (forall ( (A Int) (B Int) (C Int) (D Int) (E Int) (F Int) (G Int) (H Int) (I Int) (J Int) (K Int) (L Int) (M Int) (N Int) (O Int) (P Int) (Q Int) (R Int) (S Int) (T Int) (U Int) (V Int) (W Int) (X Int) (Y Int) (Z Int) (A1 Int) (B1 Int) ) 
    (=>
      (and
        (predh88_4 B1 A1 Z Y X W V U T S R Q P O N M L K J I H G F E D C B A)
        true
      )
      (predh17_3 B1 A1 Z Y X W V U T S R Q P O N M L K J I H G F E D C B A)
    )
  )
)
(assert
  (forall ( (A Int) (B Int) (C Int) (D Int) (E Int) (F Int) (G Int) (H Int) (I Int) (J Int) (K Int) (L Int) (M Int) (N Int) (O Int) (P Int) (Q Int) (R Int) (S Int) (T Int) (U Int) (V Int) (W Int) (X Int) (Y Int) (Z Int) (A1 Int) (B1 Int) (C1 Int) ) 
    (=>
      (and
        (predh78_5 C1 B1 A1 Z Y X W V U T S R Q P O N M L K J I H G F E D C B)
        (and (<= 0 (+ (* (- 1) H) F)) (<= 0 (+ G (* (- 1) F))) (= A (+ 1 E)))
      )
      (predh88_4 C1 B1 A1 Z Y X W V U T S R Q P O N M L K J I H G F A D C B)
    )
  )
)
(assert
  (forall ( (A Int) (B Int) (C Int) (D Int) (E Int) (F Int) (G Int) (H Int) (I Int) (J Int) (K Int) (L Int) (M Int) (N Int) (O Int) (P Int) (Q Int) (R Int) (S Int) (T Int) (U Int) (V Int) (W Int) (X Int) (Y Int) (Z Int) (A1 Int) (v_27 Int) (v_28 Int) ) 
    (=>
      (and
        (predh38_6 A1 Z Y X W V U T S R Q P O N M L K J I H G F E D v_27 C B A)
        (and (= v_27 D) (<= C 0) (<= 1 B) (= v_28 D))
      )
      (predh78_5 A1 Z Y X W V U T S R Q P O N M L K J I H G F E D v_28 C B A)
    )
  )
)
(assert
  (forall ( (A Int) (B Int) (C Int) (D Int) (E Int) (F Int) (G Int) (H Int) (I Int) (J Int) (K Int) (L Int) (M Int) (N Int) (O Int) (P Int) (Q Int) (R Int) (S Int) (T Int) (U Int) (V Int) (W Int) (X Int) (Y Int) (Z Int) (A1 Int) (B1 Int) (C1 Int) (D1 Int) ) 
    (=>
      (and
        (predh38_7 C1 B1 A1 Z Y X W V U T S R Q P O N M L K J I H G F E D C B)
        (and (<= 1 D)
     (<= 0 (+ (* (- 1) J) D))
     (<= 0 (+ (* (- 1) L) E))
     (<= 0 (+ (* (- 1) L) F))
     (<= 0 (+ I (* (- 1) D)))
     (<= 0 (+ K (* (- 1) E)))
     (<= 0 (+ K (* (- 1) F)))
     (= A (+ (- 1) D)))
      )
      (predh38_6 C1 B1 A1 Z Y X W V U T S R Q P O N M L K J I H G F E A D1 B)
    )
  )
)
(assert
  (forall ( (A Int) (B Int) (C Int) (D Int) (E Int) (F Int) (G Int) (H Int) (I Int) (J Int) (K Int) (L Int) (M Int) (N Int) (O Int) (P Int) (Q Int) (R Int) (S Int) (T Int) (U Int) (V Int) (W Int) (X Int) (Y Int) (Z Int) (A1 Int) (B1 Int) (C1 Int) (D1 Int) ) 
    (=>
      (and
        (predh38_8 C1 B1 A1 Z Y X W V U T S R Q P O N M L K J I H G F E D C B)
        (and (<= 1 D)
     (<= 0 (+ (* (- 1) J) D))
     (<= 0 (+ (* (- 1) L) E))
     (<= 0 (+ (* (- 1) L) F))
     (<= 0 (+ I (* (- 1) D)))
     (<= 0 (+ K (* (- 1) E)))
     (<= 0 (+ K (* (- 1) F)))
     (= A (+ (- 1) D)))
      )
      (predh38_7 C1 B1 A1 Z Y X W V U T S R Q P O N M L K J I H G F E A D1 B)
    )
  )
)
(assert
  (forall ( (A Int) (B Int) (C Int) (D Int) (E Int) (F Int) (G Int) (H Int) (I Int) (J Int) (K Int) (L Int) (M Int) (N Int) (O Int) (P Int) (Q Int) (R Int) (S Int) (T Int) (U Int) (V Int) (W Int) (X Int) (Y Int) (Z Int) (A1 Int) (B1 Int) (C1 Int) (D1 Int) ) 
    (=>
      (and
        (predh17_9 C1 B1 A1 Z Y X W V U T S R Q P O N M L K J I H G F E D C B)
        (and (<= 0 (+ (* (- 1) J) E))
     (<= 0 (+ (* (- 1) L) F))
     (<= 0 (+ I (* (- 1) E)))
     (<= 0 (+ N (* (- 1) E)))
     (<= 0 (+ K (* (- 1) F)))
     (= A (+ (- 1) F)))
      )
      (predh38_8 C1 B1 A1 Z Y X W V U T S R Q P O N M L K J I H G F E A D1 B)
    )
  )
)
(assert
  (forall ( (A Int) (B Int) (C Int) (D Int) (E Int) (F Int) (G Int) (H Int) (I Int) (J Int) (K Int) (L Int) (M Int) (N Int) (O Int) (P Int) (Q Int) (R Int) (S Int) (T Int) (U Int) (V Int) (W Int) (X Int) (Y Int) (Z Int) (A1 Int) (B1 Int) (v_28 Int) ) 
    (=>
      (and
        (predh8_10 B1 A1 Z Y X W V U T S R Q P O N M L K J I H G F E D C B A)
        (and (<= 0 (+ M (* (- 1) E))) (= v_28 E))
      )
      (predh17_9 B1 A1 Z Y X W V U T S R Q P O N M L K J I H G F E v_28 C B A)
    )
  )
)
(assert
  (forall ( (A Int) (B Int) (C Int) (D Int) (E Int) (F Int) (G Int) (H Int) (I Int) (J Int) (K Int) (L Int) (M Int) (N Int) (O Int) (P Int) (Q Int) (R Int) (S Int) (T Int) (U Int) (V Int) (W Int) (X Int) (Y Int) (Z Int) (A1 Int) (B1 Int) (C1 Int) ) 
    (=>
      (and
        (predh17_11 C1 B1 A1 Z Y X W V U T S R Q P O N M L K J I H G F E D C B)
        (and (<= 1 (+ (* (- 1) N) E)) (= A (+ 1 F)))
      )
      (predh8_10 C1 B1 A1 Z Y X W V U T S R Q P O N M L K J I H G A E D C B)
    )
  )
)
(assert
  (forall ( (A Int) (B Int) (C Int) (D Int) (E Int) (F Int) (G Int) (H Int) (I Int) (J Int) (K Int) (L Int) (M Int) (N Int) (O Int) (P Int) (Q Int) (R Int) (S Int) (T Int) (U Int) (V Int) (W Int) (X Int) (Y Int) (Z Int) (A1 Int) (B1 Int) ) 
    (=>
      (and
        (predh88_12 B1 A1 Z Y X W V U T S R Q P O N M L K J I H G F E D C B A)
        true
      )
      (predh17_11 B1 A1 Z Y X W V U T S R Q P O N M L K J I H G F E D C B A)
    )
  )
)
(assert
  (forall ( (A Int) (B Int) (C Int) (D Int) (E Int) (F Int) (G Int) (H Int) (I Int) (J Int) (K Int) (L Int) (M Int) (N Int) (O Int) (P Int) (Q Int) (R Int) (S Int) (T Int) (U Int) (V Int) (W Int) (X Int) (Y Int) (Z Int) (A1 Int) (B1 Int) (C1 Int) ) 
    (=>
      (and
        (predh73_13 C1 B1 A1 Z Y X W V U T S R Q P O N M L K J I H G F E D C B)
        (and (<= 0 (+ (* (- 1) H) F))
     (<= 0 (+ (* (- 1) J) F))
     (<= 0 (+ (* (- 1) L) E))
     (<= 0 (+ G (* (- 1) F)))
     (<= 0 (+ I (* (- 1) F)))
     (<= 0 (+ K (* (- 1) E)))
     (= A (+ 1 E)))
      )
      (predh88_12 C1 B1 A1 Z Y X W V U T S R Q P O N M L K J I H G F A D C B)
    )
  )
)
(assert
  (forall ( (A Int) (B Int) (C Int) (D Int) (E Int) (F Int) (G Int) (H Int) (I Int) (J Int) (K Int) (L Int) (M Int) (N Int) (O Int) (P Int) (Q Int) (R Int) (S Int) (T Int) (U Int) (V Int) (W Int) (X Int) (Y Int) (Z Int) (A1 Int) (B1 Int) ) 
    (=>
      (and
        (predh38_14 B1 A1 Z Y X W V U T S R Q P O N M L K J I H G F E D C B A)
        (and (<= C 0) (<= 1 (+ (* (- 1) E) D)))
      )
      (predh73_13 B1 A1 Z Y X W V U T S R Q P O N M L K J I H G F E D C B A)
    )
  )
)
(assert
  (forall ( (A Int) (B Int) (C Int) (D Int) (E Int) (F Int) (G Int) (H Int) (I Int) (J Int) (K Int) (L Int) (M Int) (N Int) (O Int) (P Int) (Q Int) (R Int) (S Int) (T Int) (U Int) (V Int) (W Int) (X Int) (Y Int) (Z Int) (A1 Int) (B1 Int) (C1 Int) (D1 Int) ) 
    (=>
      (and
        (predh38_15 C1 B1 A1 Z Y X W V U T S R Q P O N M L K J I H G F E D C B)
        (and (<= 1 D)
     (<= 0 (+ (* (- 1) J) D))
     (<= 0 (+ (* (- 1) L) E))
     (<= 0 (+ (* (- 1) L) F))
     (<= 0 (+ I (* (- 1) D)))
     (<= 0 (+ K (* (- 1) E)))
     (<= 0 (+ K (* (- 1) F)))
     (= A (+ (- 1) D)))
      )
      (predh38_14 C1 B1 A1 Z Y X W V U T S R Q P O N M L K J I H G F E A D1 B)
    )
  )
)
(assert
  (forall ( (A Int) (B Int) (C Int) (D Int) (E Int) (F Int) (G Int) (H Int) (I Int) (J Int) (K Int) (L Int) (M Int) (N Int) (O Int) (P Int) (Q Int) (R Int) (S Int) (T Int) (U Int) (V Int) (W Int) (X Int) (Y Int) (Z Int) (A1 Int) (B1 Int) (C1 Int) (D1 Int) ) 
    (=>
      (and
        (predh17_16 C1 B1 A1 Z Y X W V U T S R Q P O N M L K J I H G F E D C B)
        (and (<= 0 (+ (* (- 1) J) E))
     (<= 0 (+ (* (- 1) L) F))
     (<= 0 (+ I (* (- 1) E)))
     (<= 0 (+ N (* (- 1) E)))
     (<= 0 (+ K (* (- 1) F)))
     (= A (+ (- 1) F)))
      )
      (predh38_15 C1 B1 A1 Z Y X W V U T S R Q P O N M L K J I H G F E A D1 B)
    )
  )
)
(assert
  (forall ( (A Int) (B Int) (C Int) (D Int) (E Int) (F Int) (G Int) (H Int) (I Int) (J Int) (K Int) (L Int) (M Int) (N Int) (O Int) (P Int) (Q Int) (R Int) (S Int) (T Int) (U Int) (V Int) (W Int) (X Int) (Y Int) (Z Int) (A1 Int) (B1 Int) ) 
    (=>
      (and
        (predh88_17 B1 A1 Z Y X W V U T S R Q P O N M L K J I H G F E D C B A)
        true
      )
      (predh17_16 B1 A1 Z Y X W V U T S R Q P O N M L K J I H G F E D C B A)
    )
  )
)
(assert
  (forall ( (A Int) (B Int) (C Int) (D Int) (E Int) (F Int) (G Int) (H Int) (I Int) (J Int) (K Int) (L Int) (M Int) (N Int) (O Int) (P Int) (Q Int) (R Int) (S Int) (T Int) (U Int) (V Int) (W Int) (X Int) (Y Int) (Z Int) (A1 Int) (B1 Int) (C1 Int) ) 
    (=>
      (and
        (predh78_18 C1 B1 A1 Z Y X W V U T S R Q P O N M L K J I H G F E D C B)
        (and (<= 0 (+ (* (- 1) H) F)) (<= 0 (+ G (* (- 1) F))) (= A (+ 1 E)))
      )
      (predh88_17 C1 B1 A1 Z Y X W V U T S R Q P O N M L K J I H G F A D C B)
    )
  )
)
(assert
  (forall ( (A Int) (B Int) (C Int) (D Int) (E Int) (F Int) (G Int) (H Int) (I Int) (J Int) (K Int) (L Int) (M Int) (N Int) (O Int) (P Int) (Q Int) (R Int) (S Int) (T Int) (U Int) (V Int) (W Int) (X Int) (Y Int) (Z Int) (A1 Int) (v_27 Int) (v_28 Int) ) 
    (=>
      (and
        (predh38_19 A1 Z Y X W V U T S R Q P O N M L K J I H G F E D v_27 C B A)
        (and (= v_27 D) (<= C 0) (<= 1 B) (= v_28 D))
      )
      (predh78_18 A1 Z Y X W V U T S R Q P O N M L K J I H G F E D v_28 C B A)
    )
  )
)
(assert
  (forall ( (A Int) (B Int) (C Int) (D Int) (E Int) (F Int) (G Int) (H Int) (I Int) (J Int) (K Int) (L Int) (M Int) (N Int) (O Int) (P Int) (Q Int) (R Int) (S Int) (T Int) (U Int) (V Int) (W Int) (X Int) (Y Int) (Z Int) (A1 Int) (B1 Int) (C1 Int) (D1 Int) ) 
    (=>
      (and
        (predh38_20 C1 B1 A1 Z Y X W V U T S R Q P O N M L K J I H G F E D C B)
        (and (<= 1 D)
     (<= 0 (+ (* (- 1) J) D))
     (<= 0 (+ (* (- 1) L) E))
     (<= 0 (+ (* (- 1) L) F))
     (<= 0 (+ I (* (- 1) D)))
     (<= 0 (+ K (* (- 1) E)))
     (<= 0 (+ K (* (- 1) F)))
     (= A (+ (- 1) D)))
      )
      (predh38_19 C1 B1 A1 Z Y X W V U T S R Q P O N M L K J I H G F E A D1 B)
    )
  )
)
(assert
  (forall ( (A Int) (B Int) (C Int) (D Int) (E Int) (F Int) (G Int) (H Int) (I Int) (J Int) (K Int) (L Int) (M Int) (N Int) (O Int) (P Int) (Q Int) (R Int) (S Int) (T Int) (U Int) (V Int) (W Int) (X Int) (Y Int) (Z Int) (A1 Int) (B1 Int) (C1 Int) (D1 Int) ) 
    (=>
      (and
        (predh17_21 C1 B1 A1 Z Y X W V U T S R Q P O N M L K J I H G F E D C B)
        (and (<= 0 (+ (* (- 1) J) E))
     (<= 0 (+ (* (- 1) L) F))
     (<= 0 (+ I (* (- 1) E)))
     (<= 0 (+ N (* (- 1) E)))
     (<= 0 (+ K (* (- 1) F)))
     (= A (+ (- 1) F)))
      )
      (predh38_20 C1 B1 A1 Z Y X W V U T S R Q P O N M L K J I H G F E A D1 B)
    )
  )
)
(assert
  (forall ( (A Int) (B Int) (C Int) (D Int) (E Int) (F Int) (G Int) (H Int) (I Int) (J Int) (K Int) (L Int) (M Int) (N Int) (O Int) (P Int) (Q Int) (R Int) (S Int) (T Int) (U Int) (V Int) (W Int) (X Int) (Y Int) (Z Int) (A1 Int) (B1 Int) (v_28 Int) ) 
    (=>
      (and
        (predh8_22 B1 A1 Z Y X W V U T S R Q P O N M L K J I H G F E D C B A)
        (and (<= 0 (+ M (* (- 1) E))) (= v_28 E))
      )
      (predh17_21 B1 A1 Z Y X W V U T S R Q P O N M L K J I H G F E v_28 C B A)
    )
  )
)
(assert
  (forall ( (A Int) (B Int) (C Int) (D Int) (E Int) (F Int) (G Int) (H Int) (I Int) (J Int) (K Int) (L Int) (M Int) (N Int) (O Int) (P Int) (Q Int) (R Int) (S Int) (T Int) (U Int) (V Int) (W Int) (X Int) (Y Int) (Z Int) (A1 Int) (B1 Int) (C1 Int) ) 
    (=>
      (and
        (predh17_23 C1 B1 A1 Z Y X W V U T S R Q P O N M L K J I H G F E D C B)
        (and (<= 1 (+ (* (- 1) N) E)) (= A (+ 1 F)))
      )
      (predh8_22 C1 B1 A1 Z Y X W V U T S R Q P O N M L K J I H G A E D C B)
    )
  )
)
(assert
  (forall ( (A Int) (B Int) (C Int) (D Int) (E Int) (F Int) (G Int) (H Int) (I Int) (J Int) (K Int) (L Int) (M Int) (N Int) (O Int) (P Int) (Q Int) (R Int) (S Int) (T Int) (U Int) (V Int) (W Int) (X Int) (Y Int) (Z Int) (A1 Int) (B1 Int) ) 
    (=>
      (and
        (predh88_24 B1 A1 Z Y X W V U T S R Q P O N M L K J I H G F E D C B A)
        true
      )
      (predh17_23 B1 A1 Z Y X W V U T S R Q P O N M L K J I H G F E D C B A)
    )
  )
)
(assert
  (forall ( (A Int) (B Int) (C Int) (D Int) (E Int) (F Int) (G Int) (H Int) (I Int) (J Int) (K Int) (L Int) (M Int) (N Int) (O Int) (P Int) (Q Int) (R Int) (S Int) (T Int) (U Int) (V Int) (W Int) (X Int) (Y Int) (Z Int) (A1 Int) (B1 Int) (C1 Int) ) 
    (=>
      (and
        (predh73_25 C1 B1 A1 Z Y X W V U T S R Q P O N M L K J I H G F E D C B)
        (and (<= 0 (+ (* (- 1) H) F))
     (<= 0 (+ (* (- 1) J) F))
     (<= 0 (+ (* (- 1) L) E))
     (<= 0 (+ G (* (- 1) F)))
     (<= 0 (+ I (* (- 1) F)))
     (<= 0 (+ K (* (- 1) E)))
     (= A (+ 1 E)))
      )
      (predh88_24 C1 B1 A1 Z Y X W V U T S R Q P O N M L K J I H G F A D C B)
    )
  )
)
(assert
  (forall ( (A Int) (B Int) (C Int) (D Int) (E Int) (F Int) (G Int) (H Int) (I Int) (J Int) (K Int) (L Int) (M Int) (N Int) (O Int) (P Int) (Q Int) (R Int) (S Int) (T Int) (U Int) (V Int) (W Int) (X Int) (Y Int) (Z Int) (A1 Int) (B1 Int) ) 
    (=>
      (and
        (predh38_26 B1 A1 Z Y X W V U T S R Q P O N M L K J I H G F E D C B A)
        (and (<= C 0) (<= 1 (+ (* (- 1) E) D)))
      )
      (predh73_25 B1 A1 Z Y X W V U T S R Q P O N M L K J I H G F E D C B A)
    )
  )
)
(assert
  (forall ( (A Int) (B Int) (C Int) (D Int) (E Int) (F Int) (G Int) (H Int) (I Int) (J Int) (K Int) (L Int) (M Int) (N Int) (O Int) (P Int) (Q Int) (R Int) (S Int) (T Int) (U Int) (V Int) (W Int) (X Int) (Y Int) (Z Int) (A1 Int) (B1 Int) (C1 Int) (D1 Int) ) 
    (=>
      (and
        (predh17_27 C1 B1 A1 Z Y X W V U T S R Q P O N M L K J I H G F E D C B)
        (and (<= 0 (+ (* (- 1) J) E))
     (<= 0 (+ (* (- 1) L) F))
     (<= 0 (+ I (* (- 1) E)))
     (<= 0 (+ N (* (- 1) E)))
     (<= 0 (+ K (* (- 1) F)))
     (= A (+ (- 1) F)))
      )
      (predh38_26 C1 B1 A1 Z Y X W V U T S R Q P O N M L K J I H G F E A D1 B)
    )
  )
)
(assert
  (forall ( (A Int) (B Int) (C Int) (D Int) (E Int) (F Int) (G Int) (H Int) (I Int) (J Int) (K Int) (L Int) (M Int) (N Int) (O Int) (P Int) (Q Int) (R Int) (S Int) (T Int) (U Int) (V Int) (W Int) (X Int) (Y Int) (Z Int) (A1 Int) (B1 Int) ) 
    (=>
      (and
        (predh88_28 B1 A1 Z Y X W V U T S R Q P O N M L K J I H G F E D C B A)
        true
      )
      (predh17_27 B1 A1 Z Y X W V U T S R Q P O N M L K J I H G F E D C B A)
    )
  )
)
(assert
  (forall ( (A Int) (B Int) (C Int) (D Int) (E Int) (F Int) (G Int) (H Int) (I Int) (J Int) (K Int) (L Int) (M Int) (N Int) (O Int) (P Int) (Q Int) (R Int) (S Int) (T Int) (U Int) (V Int) (W Int) (X Int) (Y Int) (Z Int) (A1 Int) (B1 Int) (C1 Int) ) 
    (=>
      (and
        (predh78_29 C1 B1 A1 Z Y X W V U T S R Q P O N M L K J I H G F E D C B)
        (and (<= 0 (+ (* (- 1) H) F)) (<= 0 (+ G (* (- 1) F))) (= A (+ 1 E)))
      )
      (predh88_28 C1 B1 A1 Z Y X W V U T S R Q P O N M L K J I H G F A D C B)
    )
  )
)
(assert
  (forall ( (A Int) (B Int) (C Int) (D Int) (E Int) (F Int) (G Int) (H Int) (I Int) (J Int) (K Int) (L Int) (M Int) (N Int) (O Int) (P Int) (Q Int) (R Int) (S Int) (T Int) (U Int) (V Int) (W Int) (X Int) (Y Int) (Z Int) (A1 Int) (v_27 Int) (v_28 Int) ) 
    (=>
      (and
        (predh38_30 A1 Z Y X W V U T S R Q P O N M L K J I H G F E D v_27 C B A)
        (and (= v_27 D) (<= C 0) (<= 1 B) (= v_28 D))
      )
      (predh78_29 A1 Z Y X W V U T S R Q P O N M L K J I H G F E D v_28 C B A)
    )
  )
)
(assert
  (forall ( (A Int) (B Int) (C Int) (D Int) (E Int) (F Int) (G Int) (H Int) (I Int) (J Int) (K Int) (L Int) (M Int) (N Int) (O Int) (P Int) (Q Int) (R Int) (S Int) (T Int) (U Int) (V Int) (W Int) (X Int) (Y Int) (Z Int) (A1 Int) (B1 Int) (C1 Int) (D1 Int) ) 
    (=>
      (and
        (predh17_31 C1 B1 A1 Z Y X W V U T S R Q P O N M L K J I H G F E D C B)
        (and (<= 0 (+ (* (- 1) J) E))
     (<= 0 (+ (* (- 1) L) F))
     (<= 0 (+ I (* (- 1) E)))
     (<= 0 (+ N (* (- 1) E)))
     (<= 0 (+ K (* (- 1) F)))
     (= A (+ (- 1) F)))
      )
      (predh38_30 C1 B1 A1 Z Y X W V U T S R Q P O N M L K J I H G F E A D1 B)
    )
  )
)
(assert
  (forall ( (A Int) (B Int) (C Int) (D Int) (E Int) (F Int) (G Int) (H Int) (I Int) (J Int) (K Int) (L Int) (M Int) (N Int) (O Int) (P Int) (Q Int) (R Int) (S Int) (T Int) (U Int) (V Int) (W Int) (X Int) (Y Int) (Z Int) (A1 Int) (B1 Int) (v_28 Int) ) 
    (=>
      (and
        (predh8_32 B1 A1 Z Y X W V U T S R Q P O N M L K J I H G F E D C B A)
        (and (<= 0 (+ M (* (- 1) E))) (= v_28 E))
      )
      (predh17_31 B1 A1 Z Y X W V U T S R Q P O N M L K J I H G F E v_28 C B A)
    )
  )
)
(assert
  (forall ( (A Int) (B Int) (C Int) (D Int) (E Int) (F Int) (G Int) (H Int) (I Int) (J Int) (K Int) (L Int) (M Int) (N Int) (v_14 Int) (v_15 Int) (v_16 Int) (v_17 Int) (v_18 Int) (v_19 Int) (v_20 Int) (v_21 Int) (v_22 Int) (v_23 Int) (v_24 Int) (v_25 Int) (v_26 Int) (v_27 Int) ) 
    (=>
      (and
        (and (<= 3 E)
     (= v_14 G)
     (= v_15 E)
     (= v_16 F)
     (= 1 v_17)
     (= v_18 E)
     (= 1 v_19)
     (= v_20 E)
     (= 1 v_21)
     (= v_22 E)
     (= 1 v_23)
     (= v_24 D)
     (= v_25 C)
     (= v_26 B)
     (= v_27 A))
      )
      (predh8_32 G
           E
           F
           N
           M
           L
           K
           J
           I
           H
           D
           C
           B
           A
           v_14
           v_15
           v_16
           v_17
           v_18
           v_19
           v_20
           v_21
           v_22
           v_23
           v_24
           v_25
           v_26
           v_27)
    )
  )
)
(assert
  (forall ( (A Int) (B Int) (C Int) (D Int) (E Int) (F Int) (G Int) (H Int) (I Int) (J Int) (K Int) (L Int) (M Int) (N Int) (O Int) (P Int) (Q Int) (R Int) (S Int) (T Int) (U Int) (V Int) (W Int) (X Int) (Y Int) (Z Int) (A1 Int) (B1 Int) ) 
    (=>
      (and
        (predh38_1 B1 A1 Z Y X W V U T S R Q P O N M L K J I H G F E D C B A)
        (and (<= 1 C)
     (<= 0 (+ (* (- 1) K) D))
     (<= 0 (+ J (* (- 1) D)))
     (<= 1 (+ I (* (- 1) C))))
      )
      false
    )
  )
)

(check-sat)
(exit)
